1111111 AB
327 377 405 433 461 481 501 521 545 570 609 648 687 717 747 777 807 837 867 902 937 967 997 1027 1047 1067 1087 1107 1136 1165 1220 1274 1325 1376 1427 39
1111111 BA
303 353 378 403 432 449 463 491 511 531 551 575 600 639 678 717 747 777 807 837 867 897 932 967 997 1027 1057 1077 1097 1117 1137 1166 1195 1246 1300 1351 1402 13
